param p := 500;
param n := 9;
param e := 18;
param s := 100;

param	A: 1 2 3 4 5 6 7 8 9:=
		1	 1 0 0 0 0 0 0 0 0
		2	 0 0 0 1 0 0 0 0 0
		3	 0 0 0 0 0 0 1 0 0
		4	 0 0 0 0 0 0 0 1 0
		5	 0 0 0 1 0 0 0 0 0
		6	 1 0 0 0 0 0 0 0 0
		7	 0 0 0 0 0 0 0 1 0
		8	 0 0 0 0 1 0 0 0 0
		9	 0 1 0 0 0 0 0 0 0
		10	 0 0 1 0 0 0 0 0 0
		11	 0 0 0 0 0 1 0 0 0
		12	 1 0 0 0 0 0 0 0 0
		13	 0 0 0 0 1 0 0 0 0
		14	 0 0 1 0 0 0 0 0 0
		15	 0 0 0 0 0 0 1 0 0
		16	 0 0 0 0 1 0 0 0 0
		17	 0 0 0 0 0 0 0 1 0
		18	 0 0 0 0 1 0 0 0 0;

param	B: 1 2 3 4 5 6 7 8 9:=
		1	 0 0 0 1 0 0 0 0 0
		2	 0 0 0 0 0 0 1 0 0
		3	 0 0 0 0 0 0 0 1 0
		4	 0 0 0 0 0 0 0 0 1
		5	 0 0 0 0 1 0 0 0 0
		6	 0 1 0 0 0 0 0 0 0
		7	 0 0 0 0 1 0 0 0 0
		8	 0 1 0 0 0 0 0 0 0
		9	 0 0 1 0 0 0 0 0 0
		10	 0 0 0 0 0 1 0 0 0
		11	 0 0 0 0 0 0 0 0 1
		12	 0 0 0 0 1 0 0 0 0
		13	 0 0 0 0 0 0 0 0 1
		14	 0 1 0 0 0 0 0 0 0
		15	 0 0 1 0 0 0 0 0 0
		16	 0 0 0 0 0 1 0 0 0
		17	 0 0 0 0 0 0 1 0 0
		18	 0 0 0 1 0 0 0 0 0;

param	C :=
		1	240596095.71
		2	150924050.68
		3	227075173.19
		4	183299128.73
		5	153235385.12
		6	137040319.15
		7	195823545.07
		8	185336041.36
		9	212244768.58
		10	127444675.33
		11	214533886.10
		12	196897075.16
		13	195679245.41
		14	249251568.41
		15	148656083.28
		16	172597766.68
		17	204581132.64
		18	140777682.06;

param	L :=
		1	8.41
		2	8.34
		3	4.45
		4	8.00
		5	6.58
		6	8.48
		7	5.88
		8	9.20
		9	4.82
		10	8.42
		11	7.45
		12	7.22
		13	7.57
		14	8.44
		15	8.06
		16	9.19
		17	4.80
		18	6.98;

param	S_M :=
		1	79499405797.55
		2	82743928256.96
		3	20894471171.79
		4	84684239892.23
		5	95951106288.91
		6	57038558991.47
		7	78528259989.26
		8	44234891427.49
		9	24315855425.41
		10	90433275116.12
		11	69152881154.14
		12	20273846764.86
		13	97072230499.29
		14	71565506059.15
		15	59108983542.01
		16	34296855964.87
		17	51114035593.06
		18	68830834487.26
		19	72163129835.84
		20	88263288730.66
		21	58424669234.73
		22	63873558858.52
		23	21013490729.74
		24	99017683754.64
		25	22995162883.53
		26	35531805172.84
		27	55259762348.10
		28	39478741075.27
		29	73014530694.48
		30	61589672111.39
		31	77647019024.47
		32	28397844581.18
		33	36051428690.22
		34	95759217001.52
		35	95949619476.08
		36	71802978100.36
		37	23060996780.06
		38	29868416201.64
		39	43517909078.63
		40	74479913146.98
		41	71542623713.08
		42	35011978810.85
		43	53344288131.46
		44	82587843316.78
		45	28983333971.39
		46	53104510894.29
		47	82092847589.18
		48	55132109732.41
		49	51077872200.11
		50	23989266117.48
		51	27110224061.19
		52	27001084876.10
		53	34031269212.48
		54	69204176578.47
		55	72608183644.03
		56	31192813719.51
		57	76855322288.15
		58	98012968328.37
		59	32191410623.49
		60	27429850686.08
		61	38206240404.65
		62	27086289557.18
		63	76593417713.30
		64	97690842003.49
		65	51571477423.74
		66	55428755043.66
		67	85148972940.01
		68	96296031106.00
		69	86871502465.77
		70	43115420314.32
		71	85933232742.11
		72	99523416871.18
		73	78789487248.98
		74	36410932050.38
		75	77294146739.56
		76	33675147633.88
		77	42774187586.75
		78	35652909458.25
		79	26791600335.30
		80	39794160398.10
		81	36066182137.76
		82	42474145003.28
		83	96360430578.23
		84	49449276553.05
		85	37872689153.21
		86	82910186863.41
		87	52291373853.45
		88	43034458738.03
		89	53749089779.75
		90	71696784902.18
		91	33631179382.55
		92	89855610337.44
		93	77126019584.66
		94	32795669819.59
		95	26990806053.86
		96	29538511493.89
		97	99708144110.64
		98	69102680050.34
		99	41390279053.63
		100	40045270610.45;

param	S_C :=
		1	399742412.45
		2	237756929.25
		3	388638001.65
		4	407662659.32
		5	497559417.76
		6	227321718.87
		7	289577474.60
		8	182712766.66
		9	413840590.22
		10	252876809.48
		11	194061336.21
		12	276792052.70
		13	112856084.62
		14	431918767.62
		15	451042419.82
		16	478369493.08
		17	259160182.40
		18	243411216.04
		19	451300251.42
		20	499703241.43
		21	167428244.34
		22	465283557.86
		23	494386248.44
		24	416347402.16
		25	427805546.58
		26	325096683.25
		27	367218938.63
		28	343835099.95
		29	432853248.73
		30	461983525.20
		31	425432482.15
		32	448728539.98
		33	483713096.94
		34	254665604.12
		35	344003660.18
		36	183109107.82
		37	332551795.67
		38	173408735.98
		39	378745707.66
		40	391241747.89
		41	325532408.41
		42	126945363.34
		43	121560452.79
		44	288937449.16
		45	212605986.12
		46	438679632.18
		47	362951908.21
		48	486234691.26
		49	388174683.77
		50	227717282.14
		51	489953176.24
		52	318851278.63
		53	315264399.72
		54	428637542.09
		55	271461733.79
		56	497818071.13
		57	163489154.53
		58	337197785.42
		59	326970648.05
		60	213892209.38
		61	457072253.06
		62	307679587.71
		63	239735418.32
		64	207167679.08
		65	151346322.85
		66	326236173.50
		67	490432333.61
		68	124689025.60
		69	401780276.56
		70	221065945.10
		71	122630088.54
		72	294363280.61
		73	492742385.07
		74	340890580.16
		75	427777791.33
		76	267578190.02
		77	439647760.19
		78	156424357.12
		79	322700252.25
		80	484435921.97
		81	449930342.68
		82	215168033.18
		83	245978603.10
		84	291017528.48
		85	239786446.08
		86	251917456.28
		87	222696616.00
		88	127545565.08
		89	275953801.23
		90	323932240.26
		91	422285344.36
		92	305506409.11
		93	177419821.92
		94	267561935.74
		95	289978263.52
		96	237270082.71
		97	281328467.39
		98	130974803.18
		99	419041070.26
		100	185126664.01;

param	S_T :=
		1	75.82
		2	44.49
		3	82.26
		4	85.52
		5	52.08
		6	69.57
		7	37.78
		8	40.25
		9	68.51
		10	63.17
		11	65.51
		12	37.85
		13	35.58
		14	61.41
		15	40.14
		16	68.08
		17	25.56
		18	70.56
		19	30.88
		20	56.16
		21	42.02
		22	39.77
		23	88.19
		24	67.22
		25	64.29
		26	36.34
		27	87.50
		28	68.49
		29	82.45
		30	33.43
		31	28.25
		32	62.76
		33	86.30
		34	62.94
		35	79.71
		36	31.54
		37	31.67
		38	94.31
		39	72.12
		40	91.17
		41	62.08
		42	52.49
		43	86.13
		44	43.17
		45	33.47
		46	57.26
		47	68.71
		48	21.75
		49	91.73
		50	28.69
		51	55.86
		52	32.90
		53	87.58
		54	67.95
		55	47.16
		56	43.01
		57	60.44
		58	58.54
		59	88.60
		60	44.54
		61	98.70
		62	62.60
		63	59.48
		64	78.05
		65	34.71
		66	90.90
		67	74.43
		68	29.61
		69	73.07
		70	84.87
		71	66.28
		72	65.52
		73	40.72
		74	90.40
		75	79.93
		76	40.06
		77	32.22
		78	63.53
		79	86.44
		80	38.44
		81	27.33
		82	38.10
		83	99.20
		84	23.50
		85	98.05
		86	52.19
		87	52.61
		88	79.13
		89	39.72
		90	39.45
		91	69.67
		92	90.80
		93	39.07
		94	46.75
		95	67.49
		96	25.87
		97	77.50
		98	50.25
		99	93.59
		100	70.19;

param	S_H :=
		1	1627898.72
		2	2456364.02
		3	3234203.47
		4	2232502.85
		5	2870038.45
		6	3087163.63
		7	1211790.47
		8	1451711.93
		9	1745313.43
		10	3448673.19
		11	4943106.36
		12	4443182.21
		13	2215558.22
		14	1748795.17
		15	4651075.76
		16	2046437.71
		17	3682676.00
		18	2109882.96
		19	1537264.35
		20	1325458.61
		21	2739402.15
		22	2280113.05
		23	1966157.42
		24	4685635.24
		25	1731326.31
		26	3011418.03
		27	3396801.32
		28	2784560.14
		29	2063351.48
		30	2325743.48
		31	1872658.44
		32	1914800.33
		33	2508477.69
		34	4115956.63
		35	3079395.84
		36	1556938.06
		37	3527828.08
		38	4061803.19
		39	2811671.38
		40	3571532.81
		41	4456985.00
		42	1671957.64
		43	3475149.60
		44	3288530.90
		45	1641959.14
		46	4146429.10
		47	2556611.39
		48	4419708.21
		49	4526836.00
		50	3210306.86
		51	3795082.47
		52	4995866.06
		53	2148162.73
		54	3839949.15
		55	2580061.21
		56	3800286.43
		57	3910519.42
		58	1084423.25
		59	3358805.57
		60	2760157.14
		61	3336564.36
		62	2157903.89
		63	4163855.30
		64	1341607.68
		65	3400285.95
		66	2848698.50
		67	2886978.51
		68	4522818.33
		69	4029513.38
		70	1206259.08
		71	3554973.78
		72	4158928.93
		73	1336756.16
		74	4784971.85
		75	4136848.49
		76	1907228.94
		77	2504206.48
		78	4439279.36
		79	4011747.97
		80	2372624.54
		81	4211624.19
		82	3386231.93
		83	1410096.40
		84	3949860.67
		85	1051842.97
		86	4735548.86
		87	1916138.00
		88	3600319.90
		89	3541424.54
		90	3496807.41
		91	1681723.30
		92	4902650.53
		93	3759163.94
		94	2098364.62
		95	1763263.15
		96	3059727.82
		97	4643668.24
		98	4260826.79
		99	3719682.47
		100	4404628.67;

param	S_W :=
		1	0.75
		2	0.66
		3	0.33
		4	0.47
		5	0.06
		6	0.25
		7	0.74
		8	0.08
		9	0.56
		10	0.96
		11	0.94
		12	0.37
		13	0.16
		14	0.09
		15	0.81
		16	0.68
		17	0.45
		18	0.57
		19	0.91
		20	0.90
		21	0.12
		22	0.09
		23	0.28
		24	0.52
		25	0.35
		26	0.62
		27	0.87
		28	0.01
		29	0.96
		30	0.84
		31	0.09
		32	0.89
		33	0.51
		34	0.92
		35	0.20
		36	0.72
		37	0.67
		38	0.68
		39	0.04
		40	0.81
		41	0.33
		42	0.05
		43	0.08
		44	0.61
		45	0.40
		46	0.96
		47	0.98
		48	0.33
		49	0.09
		50	0.76
		51	0.40
		52	0.00
		53	0.84
		54	0.30
		55	0.42
		56	0.15
		57	0.16
		58	0.61
		59	0.57
		60	0.18
		61	0.70
		62	0.22
		63	0.24
		64	0.39
		65	0.82
		66	0.83
		67	0.40
		68	0.47
		69	0.46
		70	0.12
		71	0.73
		72	0.53
		73	0.73
		74	0.27
		75	0.28
		76	0.64
		77	0.86
		78	0.48
		79	0.18
		80	0.75
		81	0.54
		82	0.44
		83	0.09
		84	0.59
		85	0.68
		86	0.77
		87	0.82
		88	0.50
		89	0.32
		90	0.74
		91	0.10
		92	0.21
		93	0.93
		94	0.52
		95	0.25
		96	0.42
		97	0.40
		98	0.22
		99	0.64
		100	0.28;

param	N_M :=
		1	1207785261142.51
		2	533833948354.02
		3	1137314908436.46
		4	315642558376.79
		5	1093383221424.89
		6	526531687575.11
		7	821555385781.25
		8	899645110522.28
		9	1124721941434.65;

param	N_C :=
		1	5387962711.34
		2	2674862551.34
		3	4143324454.00
		4	4911897816.46
		5	6442075945.29
		6	6194745483.53
		7	5557153650.92
		8	3239509497.22
		9	5803708909.29;

param	N_K :=
		1	84
		2	69
		3	82
		4	97
		5	86
		6	48
		7	100
		8	52
		9	87;

param	U_N: 1 2 3 4 5 6 7 8 9:=
		1	 0 0 0 0 0 1 0 0 0
		2	 0 0 0 0 0 1 0 0 1
		3	 0 0 1 0 0 0 0 0 0
		4	 0 1 0 0 0 0 0 0 0
		5	 1 0 0 0 0 0 0 0 0
		6	 0 0 0 0 0 1 0 0 0
		7	 0 0 0 0 0 1 0 0 0
		8	 0 0 1 0 0 0 0 0 0
		9	 0 1 1 0 0 0 0 0 0
		10	 0 0 1 0 0 0 0 0 0
		11	 1 0 0 1 0 0 0 0 0
		12	 0 0 1 0 0 1 0 0 0
		13	 0 0 0 1 0 0 0 0 0
		14	 0 0 0 0 0 0 0 0 1
		15	 1 0 0 1 0 0 0 0 0
		16	 0 1 1 0 0 0 0 0 0
		17	 0 0 0 1 0 0 1 0 0
		18	 0 0 0 0 0 0 1 0 0
		19	 0 0 0 1 1 0 0 0 0
		20	 0 1 0 0 0 0 0 0 0
		21	 0 0 0 0 0 0 1 0 0
		22	 1 1 0 1 1 0 0 0 0
		23	 0 1 1 0 1 1 0 0 0
		24	 1 1 0 0 0 0 0 0 0
		25	 1 1 0 0 0 0 0 0 0
		26	 0 0 0 1 0 0 0 0 0
		27	 0 0 0 0 0 0 0 0 1
		28	 0 1 1 0 1 1 0 0 0
		29	 0 0 0 0 0 0 0 0 1
		30	 0 0 0 0 0 0 0 1 1
		31	 0 0 0 0 0 0 0 0 1
		32	 0 0 0 0 0 1 0 0 0
		33	 1 1 0 0 0 0 0 0 0
		34	 0 0 0 0 0 0 0 1 1
		35	 1 1 0 0 0 0 0 0 0
		36	 0 0 0 0 0 0 1 1 0
		37	 1 0 0 1 0 0 0 0 0
		38	 0 0 0 0 0 0 0 0 1
		39	 0 0 0 0 1 0 0 0 0
		40	 0 1 0 0 1 0 0 0 0
		41	 0 0 0 1 1 0 1 1 0
		42	 0 0 0 0 0 0 0 0 1
		43	 0 0 0 0 1 1 0 1 1
		44	 0 0 0 0 1 1 0 1 1
		45	 0 0 0 1 1 0 0 0 0
		46	 1 0 0 0 0 0 0 0 0
		47	 0 0 0 1 0 0 1 0 0
		48	 1 0 0 0 0 0 0 0 0
		49	 0 0 0 0 0 0 0 0 1
		50	 0 0 0 1 0 0 0 0 0
		51	 0 0 0 0 0 1 0 0 1
		52	 0 0 0 1 0 0 1 0 0
		53	 0 0 0 1 1 0 0 0 0
		54	 0 0 0 1 0 0 0 0 0
		55	 0 0 1 0 0 1 0 0 0
		56	 1 0 0 1 0 0 0 0 0
		57	 0 0 1 0 0 0 0 0 0
		58	 0 0 0 0 0 0 1 1 0
		59	 0 0 0 1 0 0 1 0 0
		60	 0 0 0 1 0 0 0 0 0
		61	 0 0 0 0 1 1 0 1 1
		62	 1 0 0 0 0 0 0 0 0
		63	 0 0 0 0 0 0 1 0 0
		64	 0 0 0 1 0 0 0 0 0
		65	 0 0 0 0 0 0 0 1 0
		66	 0 0 0 0 0 0 0 0 1
		67	 0 0 0 1 0 0 1 0 0
		68	 0 0 0 0 0 0 0 1 1
		69	 0 0 0 1 0 0 0 0 0
		70	 0 0 0 0 0 0 1 0 0
		71	 0 0 0 1 0 0 1 0 0
		72	 0 0 0 0 0 1 0 0 1
		73	 0 1 0 0 0 0 0 0 0
		74	 0 0 0 0 0 1 0 0 0
		75	 0 0 0 0 0 0 1 1 0
		76	 1 1 0 1 1 0 0 0 0
		77	 1 0 0 1 0 0 0 0 0
		78	 0 0 0 0 0 0 0 0 1
		79	 0 0 0 0 0 0 0 0 1
		80	 0 0 0 0 1 0 0 1 0
		81	 0 0 0 1 0 0 0 0 0
		82	 0 1 0 0 0 0 0 0 0
		83	 0 0 0 0 0 0 0 0 1
		84	 0 1 1 0 0 0 0 0 0
		85	 0 0 1 0 0 0 0 0 0
		86	 0 0 0 0 0 0 1 0 0
		87	 0 0 0 0 0 0 1 1 0
		88	 1 0 0 0 0 0 0 0 0
		89	 0 0 0 0 0 0 0 0 1
		90	 0 0 0 0 0 0 0 0 1
		91	 0 1 1 0 0 0 0 0 0
		92	 0 1 0 0 0 0 0 0 0
		93	 0 0 0 0 0 1 0 0 0
		94	 0 0 0 0 0 0 0 1 1
		95	 0 0 0 1 1 0 0 0 0
		96	 0 0 0 1 1 0 0 0 0
		97	 0 0 0 0 0 0 1 0 0
		98	 0 1 1 0 0 0 0 0 0
		99	 1 0 0 1 0 0 0 0 0
		100	 1 1 0 1 1 0 0 0 0
		101	 0 1 0 0 0 0 0 0 0
		102	 0 1 1 0 0 0 0 0 0
		103	 0 0 0 1 0 0 0 0 0
		104	 0 1 1 0 1 1 0 0 0
		105	 1 0 0 0 0 0 0 0 0
		106	 0 0 1 0 0 0 0 0 0
		107	 0 0 1 0 0 0 0 0 0
		108	 0 0 1 0 0 1 0 0 0
		109	 0 0 0 1 1 0 0 0 0
		110	 0 0 0 0 0 0 0 0 1
		111	 0 0 1 0 0 1 0 0 0
		112	 0 0 0 0 0 0 0 1 1
		113	 0 0 0 0 0 0 0 1 1
		114	 0 1 1 0 1 1 0 0 0
		115	 0 0 0 0 1 1 0 1 1
		116	 0 0 0 0 0 0 0 0 1
		117	 0 0 0 0 0 0 1 0 0
		118	 0 0 0 1 0 0 1 0 0
		119	 0 0 1 0 0 0 0 0 0
		120	 1 0 0 0 0 0 0 0 0
		121	 0 0 1 0 0 1 0 0 0
		122	 0 0 1 0 0 0 0 0 0
		123	 0 0 0 1 0 0 0 0 0
		124	 1 1 0 0 0 0 0 0 0
		125	 0 0 0 1 0 0 1 0 0
		126	 0 0 0 1 0 0 1 0 0
		127	 0 0 0 0 1 0 0 0 0
		128	 0 0 0 0 0 1 0 0 0
		129	 0 0 0 1 0 0 1 0 0
		130	 0 0 1 0 0 1 0 0 0
		131	 0 0 0 0 1 0 0 1 0
		132	 0 1 1 0 0 0 0 0 0
		133	 1 0 0 0 0 0 0 0 0
		134	 0 0 1 0 0 0 0 0 0
		135	 0 0 1 0 0 1 0 0 0
		136	 0 0 1 0 0 0 0 0 0
		137	 1 1 0 0 0 0 0 0 0
		138	 1 1 0 1 1 0 0 0 0
		139	 0 0 0 0 0 0 1 0 0
		140	 0 0 0 1 0 0 1 0 0
		141	 0 0 0 1 0 0 0 0 0
		142	 0 0 0 0 0 1 0 0 1
		143	 0 1 1 0 0 0 0 0 0
		144	 0 1 1 0 0 0 0 0 0
		145	 0 1 1 0 1 1 0 0 0
		146	 0 0 0 0 1 0 0 1 0
		147	 0 0 0 1 0 0 0 0 0
		148	 0 0 0 0 0 0 1 0 0
		149	 0 0 0 0 0 0 1 1 0
		150	 0 0 0 1 1 0 1 1 0
		151	 0 0 0 1 0 0 0 0 0
		152	 0 1 0 0 0 0 0 0 0
		153	 0 0 1 0 0 0 0 0 0
		154	 1 1 0 0 0 0 0 0 0
		155	 0 0 0 0 0 0 1 0 0
		156	 0 1 1 0 0 0 0 0 0
		157	 0 0 1 0 0 0 0 0 0
		158	 0 0 1 0 0 0 0 0 0
		159	 0 0 1 0 0 1 0 0 0
		160	 0 0 0 0 1 0 0 1 0
		161	 0 0 0 0 0 0 1 0 0
		162	 0 0 0 1 0 0 1 0 0
		163	 0 0 0 1 0 0 1 0 0
		164	 1 0 0 1 0 0 0 0 0
		165	 0 0 0 1 0 0 0 0 0
		166	 0 0 0 0 1 1 0 1 1
		167	 0 0 0 0 0 0 0 0 1
		168	 0 0 0 0 1 1 0 1 1
		169	 0 0 0 0 1 1 0 0 0
		170	 0 0 1 0 0 0 0 0 0
		171	 0 0 0 0 0 0 0 0 1
		172	 1 1 0 1 1 0 0 0 0
		173	 0 1 0 0 0 0 0 0 0
		174	 0 0 0 1 1 0 1 1 0
		175	 1 0 0 0 0 0 0 0 0
		176	 0 0 1 0 0 1 0 0 0
		177	 0 0 1 0 0 1 0 0 0
		178	 1 0 0 1 0 0 0 0 0
		179	 0 0 0 0 1 0 0 0 0
		180	 0 0 0 0 0 1 0 0 1
		181	 0 0 0 0 0 0 0 0 1
		182	 0 0 0 0 0 1 0 0 0
		183	 0 0 0 0 0 0 1 0 0
		184	 0 0 0 0 1 1 0 1 1
		185	 0 0 0 1 0 0 0 0 0
		186	 0 0 1 0 0 1 0 0 0
		187	 0 0 0 0 0 1 0 0 1
		188	 0 0 0 1 0 0 1 0 0
		189	 0 0 0 0 0 0 0 0 1
		190	 0 0 0 0 1 1 0 1 1
		191	 0 1 0 0 1 0 0 0 0
		192	 0 0 0 0 0 0 0 0 1
		193	 0 0 0 0 1 0 0 0 0
		194	 0 0 0 0 0 0 0 1 1
		195	 0 0 1 0 0 1 0 0 0
		196	 0 0 0 0 0 0 0 1 1
		197	 0 0 0 1 1 0 1 1 0
		198	 0 0 0 1 1 0 0 0 0
		199	 0 0 0 1 0 0 1 0 0
		200	 0 1 0 0 0 0 0 0 0
		201	 0 0 1 0 0 0 0 0 0
		202	 0 0 0 0 1 1 0 1 1
		203	 0 0 0 0 1 0 0 1 0
		204	 0 0 0 0 0 0 1 1 0
		205	 0 0 1 0 0 1 0 0 0
		206	 0 0 0 1 0 0 0 0 0
		207	 0 0 0 1 1 0 1 1 0
		208	 1 0 0 0 0 0 0 0 0
		209	 0 0 0 0 0 0 0 0 1
		210	 0 0 0 0 0 0 0 1 0
		211	 0 0 0 0 0 1 0 0 0
		212	 1 0 0 1 0 0 0 0 0
		213	 0 0 0 0 0 0 1 0 0
		214	 0 0 1 0 0 0 0 0 0
		215	 1 0 0 0 0 0 0 0 0
		216	 0 0 0 0 1 0 0 0 0
		217	 1 1 0 0 0 0 0 0 0
		218	 0 0 0 0 0 1 0 0 1
		219	 0 0 0 0 0 0 1 0 0
		220	 0 1 1 0 0 0 0 0 0
		221	 1 0 0 1 0 0 0 0 0
		222	 0 1 1 0 0 0 0 0 0
		223	 0 0 0 0 1 0 0 0 0
		224	 1 0 0 0 0 0 0 0 0
		225	 0 1 1 0 1 1 0 0 0
		226	 0 0 1 0 0 0 0 0 0
		227	 0 0 0 0 1 0 0 0 0
		228	 0 0 0 0 1 0 0 1 0
		229	 1 0 0 0 0 0 0 0 0
		230	 0 1 1 0 1 1 0 0 0
		231	 1 1 0 0 0 0 0 0 0
		232	 0 0 0 0 0 0 0 1 0
		233	 0 0 0 1 0 0 0 0 0
		234	 0 0 0 0 0 0 0 1 0
		235	 1 0 0 1 0 0 0 0 0
		236	 0 0 0 0 0 0 1 1 0
		237	 0 0 0 0 0 0 0 0 1
		238	 0 0 0 0 0 0 1 1 0
		239	 0 1 1 0 0 0 0 0 0
		240	 1 0 0 1 0 0 0 0 0
		241	 0 0 0 0 1 0 0 1 0
		242	 0 0 0 0 0 0 0 0 1
		243	 0 0 0 0 0 0 1 1 0
		244	 1 0 0 0 0 0 0 0 0
		245	 0 0 0 0 0 0 0 0 1
		246	 0 0 0 0 0 0 0 0 1
		247	 0 0 0 1 1 0 1 1 0
		248	 0 0 0 0 0 1 0 0 0
		249	 0 1 1 0 0 0 0 0 0
		250	 0 0 0 1 0 0 1 0 0
		251	 1 0 0 0 0 0 0 0 0
		252	 1 1 0 1 1 0 0 0 0
		253	 0 0 0 0 0 1 0 0 0
		254	 0 0 1 0 0 0 0 0 0
		255	 0 1 0 0 1 0 0 0 0
		256	 0 0 0 0 0 1 0 0 0
		257	 1 0 0 1 0 0 0 0 0
		258	 0 0 1 0 0 0 0 0 0
		259	 0 0 0 0 0 1 0 0 1
		260	 0 0 0 0 0 0 1 0 0
		261	 0 0 0 0 0 0 0 1 1
		262	 0 0 0 0 1 0 0 1 0
		263	 0 0 1 0 0 0 0 0 0
		264	 0 0 1 0 0 1 0 0 0
		265	 0 0 0 1 0 0 0 0 0
		266	 1 0 0 0 0 0 0 0 0
		267	 0 0 0 0 0 0 1 0 0
		268	 0 1 1 0 0 0 0 0 0
		269	 0 0 0 0 1 1 0 0 0
		270	 0 0 0 1 1 0 1 1 0
		271	 0 1 0 0 1 0 0 0 0
		272	 1 1 0 1 1 0 0 0 0
		273	 1 1 0 1 1 0 0 0 0
		274	 0 0 1 0 0 1 0 0 0
		275	 0 0 0 0 0 0 0 1 1
		276	 0 0 0 0 0 1 0 0 1
		277	 0 1 0 0 0 0 0 0 0
		278	 1 1 0 0 0 0 0 0 0
		279	 0 0 1 0 0 1 0 0 0
		280	 1 0 0 1 0 0 0 0 0
		281	 0 0 0 0 0 1 0 0 0
		282	 0 0 0 1 1 0 0 0 0
		283	 0 0 0 0 0 0 0 0 1
		284	 0 1 1 0 0 0 0 0 0
		285	 0 0 0 1 0 0 0 0 0
		286	 0 0 0 0 1 0 0 0 0
		287	 0 0 1 0 0 0 0 0 0
		288	 0 1 1 0 0 0 0 0 0
		289	 0 0 0 0 0 0 0 0 1
		290	 0 0 0 0 0 0 1 0 0
		291	 0 0 0 1 0 0 1 0 0
		292	 0 0 0 1 0 0 0 0 0
		293	 1 0 0 0 0 0 0 0 0
		294	 0 0 0 1 1 0 1 1 0
		295	 1 0 0 0 0 0 0 0 0
		296	 0 0 0 1 1 0 0 0 0
		297	 0 0 0 0 0 0 0 0 1
		298	 0 0 0 0 0 0 0 1 1
		299	 0 0 0 1 0 0 0 0 0
		300	 0 1 1 0 0 0 0 0 0
		301	 0 0 0 1 0 0 0 0 0
		302	 0 0 0 0 1 1 0 1 1
		303	 0 1 1 0 1 1 0 0 0
		304	 0 0 1 0 0 0 0 0 0
		305	 0 0 0 0 1 1 0 0 0
		306	 0 0 1 0 0 0 0 0 0
		307	 0 0 0 0 0 0 0 0 1
		308	 0 1 1 0 1 1 0 0 0
		309	 0 0 0 1 1 0 1 1 0
		310	 1 1 0 1 1 0 0 0 0
		311	 0 0 0 1 1 0 1 1 0
		312	 0 0 0 1 0 0 0 0 0
		313	 0 0 0 0 0 1 0 0 1
		314	 0 0 0 0 0 1 0 0 0
		315	 0 0 0 0 1 0 0 1 0
		316	 0 0 0 0 0 1 0 0 0
		317	 0 0 0 1 0 0 0 0 0
		318	 0 0 0 0 1 1 0 0 0
		319	 1 1 0 0 0 0 0 0 0
		320	 1 1 0 0 0 0 0 0 0
		321	 0 0 0 0 0 1 0 0 1
		322	 0 0 0 0 0 0 0 1 1
		323	 0 0 1 0 0 0 0 0 0
		324	 0 1 1 0 0 0 0 0 0
		325	 0 0 0 0 0 0 1 0 0
		326	 0 0 0 1 0 0 0 0 0
		327	 0 0 0 0 0 0 1 1 0
		328	 0 0 0 1 0 0 0 0 0
		329	 1 0 0 0 0 0 0 0 0
		330	 0 0 0 0 0 1 0 0 0
		331	 0 0 0 0 1 0 0 1 0
		332	 0 0 0 0 1 0 0 1 0
		333	 1 0 0 1 0 0 0 0 0
		334	 1 1 0 0 0 0 0 0 0
		335	 0 0 0 0 1 1 0 0 0
		336	 0 0 1 0 0 1 0 0 0
		337	 0 0 0 0 0 0 0 1 1
		338	 0 0 1 0 0 0 0 0 0
		339	 0 0 0 1 1 0 1 1 0
		340	 0 0 0 0 1 0 0 1 0
		341	 0 0 0 0 0 1 0 0 1
		342	 0 1 0 0 0 0 0 0 0
		343	 0 1 1 0 0 0 0 0 0
		344	 0 0 0 0 0 0 0 1 1
		345	 0 1 1 0 0 0 0 0 0
		346	 0 0 0 0 0 0 0 1 1
		347	 0 0 1 0 0 1 0 0 0
		348	 1 0 0 1 0 0 0 0 0
		349	 0 0 1 0 0 0 0 0 0
		350	 0 0 0 1 0 0 0 0 0
		351	 0 1 0 0 0 0 0 0 0
		352	 0 1 0 0 1 0 0 0 0
		353	 0 1 1 0 0 0 0 0 0
		354	 0 1 1 0 1 1 0 0 0
		355	 0 0 0 1 1 0 0 0 0
		356	 0 0 0 0 1 0 0 1 0
		357	 0 0 0 0 0 1 0 0 0
		358	 0 0 0 0 0 0 0 1 0
		359	 0 0 0 0 1 1 0 1 1
		360	 0 0 0 0 0 0 1 0 0
		361	 0 0 0 1 0 0 1 0 0
		362	 1 0 0 0 0 0 0 0 0
		363	 0 0 0 0 0 1 0 0 1
		364	 0 1 0 0 0 0 0 0 0
		365	 0 0 0 0 1 1 0 0 0
		366	 0 0 0 0 0 0 0 0 1
		367	 0 0 0 0 0 0 0 1 0
		368	 0 0 0 0 0 1 0 0 0
		369	 0 0 0 1 1 0 1 1 0
		370	 0 0 0 0 1 0 0 0 0
		371	 1 0 0 1 0 0 0 0 0
		372	 1 1 0 0 0 0 0 0 0
		373	 0 0 0 0 0 0 1 1 0
		374	 0 0 0 0 1 0 0 0 0
		375	 0 0 0 0 0 0 0 0 1
		376	 0 0 0 1 0 0 1 0 0
		377	 1 0 0 1 0 0 0 0 0
		378	 0 1 0 0 0 0 0 0 0
		379	 0 0 1 0 0 0 0 0 0
		380	 0 0 0 1 0 0 1 0 0
		381	 0 0 0 0 0 0 0 0 1
		382	 0 1 0 0 0 0 0 0 0
		383	 0 0 0 0 1 1 0 0 0
		384	 0 0 0 0 1 0 0 1 0
		385	 0 0 0 0 0 0 0 1 1
		386	 0 0 0 0 0 1 0 0 1
		387	 0 1 0 0 1 0 0 0 0
		388	 0 0 0 0 0 1 0 0 0
		389	 1 0 0 0 0 0 0 0 0
		390	 1 1 0 1 1 0 0 0 0
		391	 1 1 0 0 0 0 0 0 0
		392	 0 1 0 0 0 0 0 0 0
		393	 0 0 1 0 0 1 0 0 0
		394	 0 0 0 1 0 0 1 0 0
		395	 1 0 0 1 0 0 0 0 0
		396	 0 0 0 1 1 0 0 0 0
		397	 0 0 1 0 0 1 0 0 0
		398	 0 0 0 0 1 1 0 0 0
		399	 0 0 0 0 0 0 1 1 0
		400	 1 0 0 0 0 0 0 0 0
		401	 0 0 1 0 0 0 0 0 0
		402	 1 0 0 0 0 0 0 0 0
		403	 0 1 1 0 1 1 0 0 0
		404	 0 0 0 0 0 0 1 0 0
		405	 1 1 0 1 1 0 0 0 0
		406	 0 0 1 0 0 0 0 0 0
		407	 0 0 1 0 0 0 0 0 0
		408	 0 0 1 0 0 1 0 0 0
		409	 0 0 1 0 0 1 0 0 0
		410	 0 1 1 0 1 1 0 0 0
		411	 1 1 0 1 1 0 0 0 0
		412	 0 1 0 0 1 0 0 0 0
		413	 1 0 0 1 0 0 0 0 0
		414	 0 0 0 0 0 0 0 1 0
		415	 0 0 0 1 0 0 1 0 0
		416	 0 0 0 0 1 0 0 1 0
		417	 0 0 1 0 0 0 0 0 0
		418	 0 1 0 0 0 0 0 0 0
		419	 1 0 0 1 0 0 0 0 0
		420	 0 0 0 0 0 0 1 0 0
		421	 0 0 0 1 1 0 0 0 0
		422	 1 0 0 0 0 0 0 0 0
		423	 0 0 0 0 0 1 0 0 0
		424	 0 0 0 0 0 0 1 0 0
		425	 0 0 0 0 1 0 0 1 0
		426	 0 0 0 0 1 1 0 1 1
		427	 0 0 0 0 0 0 1 1 0
		428	 0 0 0 0 1 0 0 0 0
		429	 1 1 0 0 0 0 0 0 0
		430	 0 0 0 0 0 0 1 1 0
		431	 0 0 0 0 0 0 1 0 0
		432	 0 0 0 0 0 0 1 1 0
		433	 0 0 0 0 0 1 0 0 1
		434	 0 0 0 1 0 0 1 0 0
		435	 0 0 0 0 1 1 0 0 0
		436	 0 0 0 0 1 0 0 0 0
		437	 0 1 0 0 1 0 0 0 0
		438	 0 0 0 0 0 0 0 1 1
		439	 0 0 0 1 1 0 0 0 0
		440	 0 0 0 1 0 0 0 0 0
		441	 0 1 0 0 0 0 0 0 0
		442	 0 1 0 0 1 0 0 0 0
		443	 0 0 0 0 1 1 0 0 0
		444	 0 1 0 0 1 0 0 0 0
		445	 0 0 0 1 0 0 1 0 0
		446	 0 0 0 0 0 0 0 1 0
		447	 0 0 0 0 0 0 1 1 0
		448	 0 0 0 0 0 0 0 0 1
		449	 0 0 0 0 0 0 0 0 1
		450	 0 0 0 0 0 1 0 0 1
		451	 0 0 0 0 0 1 0 0 1
		452	 0 0 0 1 0 0 0 0 0
		453	 0 0 0 0 1 0 0 0 0
		454	 0 0 0 0 1 0 0 1 0
		455	 0 0 1 0 0 1 0 0 0
		456	 0 1 1 0 0 0 0 0 0
		457	 0 0 0 0 0 0 0 1 0
		458	 0 0 0 0 1 0 0 1 0
		459	 0 0 0 1 1 0 0 0 0
		460	 0 0 1 0 0 0 0 0 0
		461	 0 0 0 0 0 0 1 0 0
		462	 0 0 0 0 1 0 0 0 0
		463	 0 0 0 0 1 0 0 0 0
		464	 0 0 1 0 0 0 0 0 0
		465	 0 1 1 0 0 0 0 0 0
		466	 0 0 0 1 1 0 0 0 0
		467	 1 1 0 0 0 0 0 0 0
		468	 1 1 0 1 1 0 0 0 0
		469	 0 1 0 0 0 0 0 0 0
		470	 0 1 0 0 1 0 0 0 0
		471	 0 0 0 0 0 0 0 1 0
		472	 0 0 0 0 0 1 0 0 1
		473	 0 0 0 0 1 1 0 1 1
		474	 1 0 0 0 0 0 0 0 0
		475	 0 0 0 0 0 1 0 0 1
		476	 0 0 0 0 1 1 0 0 0
		477	 0 0 0 0 0 0 0 0 1
		478	 0 0 0 0 0 0 1 0 0
		479	 0 0 0 0 0 0 0 1 0
		480	 0 0 1 0 0 0 0 0 0
		481	 0 0 0 0 1 1 0 1 1
		482	 0 0 1 0 0 0 0 0 0
		483	 1 1 0 1 1 0 0 0 0
		484	 0 1 0 0 0 0 0 0 0
		485	 0 1 0 0 0 0 0 0 0
		486	 0 1 1 0 0 0 0 0 0
		487	 0 1 1 0 0 0 0 0 0
		488	 0 0 0 0 1 0 0 1 0
		489	 1 0 0 0 0 0 0 0 0
		490	 0 1 0 0 0 0 0 0 0
		491	 0 1 1 0 0 0 0 0 0
		492	 0 0 0 0 0 1 0 0 1
		493	 0 0 0 1 0 0 1 0 0
		494	 0 0 0 0 0 1 0 0 0
		495	 0 0 0 0 0 0 0 1 1
		496	 0 0 1 0 0 0 0 0 0
		497	 0 0 0 0 0 0 1 1 0
		498	 0 1 0 0 0 0 0 0 0
		499	 0 0 1 0 0 0 0 0 0
		500	 0 0 0 0 1 0 0 1 0;

param	U_S :=
		1	7
		2	77
		3	94
		4	2
		5	6
		6	9
		7	41
		8	44
		9	18
		10	57
		11	96
		12	36
		13	50
		14	97
		15	98
		16	23
		17	88
		18	23
		19	48
		20	87
		21	91
		22	66
		23	89
		24	72
		25	24
		26	98
		27	27
		28	7
		29	37
		30	33
		31	32
		32	26
		33	6
		34	3
		35	24
		36	73
		37	73
		38	82
		39	67
		40	94
		41	59
		42	83
		43	65
		44	90
		45	77
		46	79
		47	39
		48	73
		49	34
		50	75
		51	19
		52	26
		53	13
		54	41
		55	61
		56	87
		57	7
		58	75
		59	56
		60	48
		61	49
		62	21
		63	67
		64	62
		65	99
		66	8
		67	62
		68	78
		69	29
		70	2
		71	12
		72	6
		73	75
		74	94
		75	4
		76	14
		77	19
		78	87
		79	37
		80	56
		81	83
		82	60
		83	6
		84	76
		85	74
		86	62
		87	4
		88	38
		89	38
		90	59
		91	23
		92	64
		93	22
		94	7
		95	67
		96	91
		97	100
		98	68
		99	94
		100	56
		101	70
		102	49
		103	18
		104	38
		105	79
		106	24
		107	78
		108	8
		109	27
		110	13
		111	39
		112	83
		113	27
		114	9
		115	4
		116	39
		117	71
		118	85
		119	82
		120	3
		121	64
		122	94
		123	52
		124	18
		125	64
		126	70
		127	98
		128	80
		129	42
		130	77
		131	38
		132	97
		133	54
		134	36
		135	77
		136	99
		137	39
		138	98
		139	9
		140	41
		141	18
		142	49
		143	9
		144	3
		145	57
		146	42
		147	24
		148	7
		149	2
		150	79
		151	67
		152	28
		153	41
		154	33
		155	90
		156	41
		157	65
		158	71
		159	10
		160	36
		161	71
		162	46
		163	61
		164	22
		165	54
		166	41
		167	32
		168	38
		169	5
		170	12
		171	2
		172	37
		173	70
		174	73
		175	26
		176	84
		177	51
		178	47
		179	18
		180	16
		181	47
		182	30
		183	58
		184	97
		185	94
		186	74
		187	81
		188	20
		189	50
		190	78
		191	75
		192	6
		193	71
		194	5
		195	20
		196	51
		197	12
		198	53
		199	27
		200	61
		201	48
		202	70
		203	43
		204	21
		205	89
		206	73
		207	73
		208	63
		209	9
		210	42
		211	12
		212	15
		213	14
		214	89
		215	19
		216	29
		217	47
		218	82
		219	33
		220	79
		221	55
		222	86
		223	94
		224	35
		225	55
		226	87
		227	10
		228	7
		229	100
		230	64
		231	79
		232	35
		233	50
		234	40
		235	84
		236	39
		237	93
		238	40
		239	61
		240	32
		241	27
		242	89
		243	53
		244	61
		245	61
		246	86
		247	51
		248	73
		249	92
		250	90
		251	91
		252	71
		253	98
		254	69
		255	53
		256	78
		257	79
		258	35
		259	13
		260	57
		261	23
		262	35
		263	2
		264	4
		265	21
		266	79
		267	65
		268	10
		269	22
		270	53
		271	61
		272	2
		273	32
		274	29
		275	80
		276	62
		277	50
		278	42
		279	54
		280	12
		281	52
		282	15
		283	40
		284	32
		285	29
		286	34
		287	97
		288	56
		289	89
		290	37
		291	43
		292	76
		293	41
		294	54
		295	19
		296	34
		297	42
		298	58
		299	16
		300	30
		301	91
		302	77
		303	7
		304	100
		305	64
		306	99
		307	95
		308	14
		309	73
		310	98
		311	11
		312	41
		313	23
		314	62
		315	5
		316	8
		317	93
		318	66
		319	62
		320	67
		321	96
		322	27
		323	35
		324	66
		325	8
		326	34
		327	45
		328	45
		329	70
		330	20
		331	82
		332	60
		333	57
		334	43
		335	31
		336	13
		337	57
		338	75
		339	45
		340	90
		341	31
		342	61
		343	18
		344	5
		345	3
		346	28
		347	38
		348	90
		349	17
		350	68
		351	79
		352	16
		353	69
		354	35
		355	65
		356	72
		357	49
		358	58
		359	18
		360	36
		361	44
		362	60
		363	96
		364	73
		365	75
		366	67
		367	1
		368	55
		369	15
		370	50
		371	3
		372	16
		373	93
		374	46
		375	49
		376	13
		377	25
		378	94
		379	78
		380	50
		381	35
		382	83
		383	17
		384	21
		385	47
		386	97
		387	96
		388	87
		389	31
		390	84
		391	27
		392	50
		393	6
		394	39
		395	89
		396	62
		397	73
		398	69
		399	57
		400	83
		401	44
		402	90
		403	32
		404	73
		405	23
		406	17
		407	17
		408	54
		409	75
		410	18
		411	74
		412	66
		413	82
		414	95
		415	11
		416	74
		417	62
		418	32
		419	79
		420	8
		421	33
		422	3
		423	48
		424	68
		425	22
		426	88
		427	37
		428	67
		429	64
		430	14
		431	22
		432	14
		433	81
		434	8
		435	4
		436	80
		437	1
		438	6
		439	71
		440	47
		441	70
		442	11
		443	87
		444	82
		445	67
		446	62
		447	100
		448	3
		449	79
		450	68
		451	91
		452	72
		453	8
		454	42
		455	91
		456	15
		457	10
		458	51
		459	45
		460	84
		461	4
		462	9
		463	99
		464	4
		465	23
		466	92
		467	80
		468	10
		469	31
		470	74
		471	93
		472	99
		473	20
		474	65
		475	10
		476	21
		477	34
		478	76
		479	19
		480	65
		481	19
		482	63
		483	76
		484	25
		485	9
		486	84
		487	54
		488	8
		489	48
		490	78
		491	6
		492	56
		493	43
		494	16
		495	100
		496	87
		497	85
		498	85
		499	80
		500	47;



